n = 50;
costtab =
  [|1, 39, 50, -386,
   |1, 1, 1, 0,
   |2, 38, 47, -496,
   |2, 47, 38, -556,
   |2, 50, 38, -390,
   |2, 50, 47, -375,
   |2, 2, 2, 0,
   |3, 16, 32, -708,
   |3, 16, 34, -685,
   |3, 16, 45, -707,
   |3, 32, 16, -1404,
   |3, 32, 34, -1385,
   |3, 32, 45, -1404,
   |3, 34, 16, -566,
   |3, 34, 32, -570,
   |3, 34, 45, -573,
   |3, 45, 16, -473,
   |3, 45, 32, -474,
   |3, 45, 34, -458,
   |3, 3, 3, 0,
   |4, 16, 41, -799,
   |4, 16, 49, -765,
   |4, 41, 16, -543,
   |4, 41, 49, -518,
   |4, 49, 16, -292,
   |4, 49, 41, -299,
   |4, 4, 4, 0,
   |5, 21, 23, -981,
   |5, 21, 30, -972,
   |5, 21, 43, -985,
   |5, 23, 21, -915,
   |5, 23, 30, -906,
   |5, 23, 43, -916,
   |5, 30, 21, -360,
   |5, 30, 23, -360,
   |5, 30, 43, -358,
   |5, 43, 21, -674,
   |5, 43, 23, -671,
   |5, 43, 30, -658,
   |5, 5, 5, 0,
   |6, 19, 38, -790,
   |6, 19, 44, -787,
   |6, 19, 48, -771,
   |6, 38, 19, -843,
   |6, 38, 44, -846,
   |6, 38, 48, -809,
   |6, 44, 19, -303,
   |6, 44, 38, -309,
   |6, 44, 48, -269,
   |6, 48, 19, -303,
   |6, 48, 38, -288,
   |6, 48, 44, -286,
   |6, 50, 19, -1405,
   |6, 50, 38, -1407,
   |6, 50, 44, -1406,
   |6, 50, 48, -1374,
   |6, 6, 6, 0,
   |7, 17, 34, -728,
   |7, 17, 40, -732,
   |7, 34, 17, -1146,
   |7, 34, 40, -1151,
   |7, 40, 17, -563,
   |7, 40, 34, -563,
   |7, 7, 7, 0,
   |8, 16, 24, -1303,
   |8, 16, 28, -1306,
   |8, 16, 46, -1303,
   |8, 24, 16, -1323,
   |8, 24, 28, -1321,
   |8, 24, 46, -1327,
   |8, 28, 16, -880,
   |8, 28, 24, -874,
   |8, 28, 46, -873,
   |8, 46, 16, -829,
   |8, 46, 24, -834,
   |8, 46, 28, -827,
   |8, 8, 8, 0,
   |9, 12, 19, -1293,
   |9, 12, 35, -1290,
   |9, 12, 42, -1293,
   |9, 12, 46, -1290,
   |9, 19, 12, -1543,
   |9, 19, 35, -1540,
   |9, 19, 42, -1541,
   |9, 19, 46, -1540,
   |9, 35, 12, -820,
   |9, 35, 19, -821,
   |9, 35, 42, -820,
   |9, 35, 46, -825,
   |9, 42, 12, -1371,
   |9, 42, 19, -1368,
   |9, 42, 35, -1367,
   |9, 42, 46, -1366,
   |9, 46, 12, -608,
   |9, 46, 19, -609,
   |9, 46, 35, -613,
   |9, 46, 42, -607,
   |9, 9, 9, 0,
   |10, 50, 37, -425,
   |10, 10, 10, 0,
   |11, 21, 36, -540,
   |11, 21, 43, -551,
   |11, 36, 21, -1127,
   |11, 36, 43, -1135,
   |11, 43, 21, -336,
   |11, 43, 36, -334,
   |11, 11, 11, 0,
   |12, 9, 32, -1263,
   |12, 9, 42, -1279,
   |12, 32, 9, -415,
   |12, 32, 42, -429,
   |12, 42, 9, -487,
   |12, 42, 32, -485,
   |12, 12, 12, 0,
   |13, 35, 36, -402,
   |13, 36, 35, -456,
   |13, 13, 13, 0,
   |14, 30, 39, -468,
   |14, 39, 30, -338,
   |14, 14, 14, 0,
   |15, 15, 15, 0,
   |16, 3, 4, -686,
   |16, 3, 8, -698,
   |16, 3, 28, -694,
   |16, 3, 32, -668,
   |16, 3, 34, -707,
   |16, 3, 41, -694,
   |16, 3, 49, -688,
   |16, 4, 3, -776,
   |16, 4, 8, -781,
   |16, 4, 28, -788,
   |16, 4, 32, -793,
   |16, 4, 34, -782,
   |16, 4, 41, -798,
   |16, 4, 49, -799,
   |16, 8, 3, -1297,
   |16, 8, 4, -1289,
   |16, 8, 28, -1306,
   |16, 8, 32, -1293,
   |16, 8, 34, -1302,
   |16, 8, 41, -1286,
   |16, 8, 49, -1287,
   |16, 28, 3, -523,
   |16, 28, 4, -525,
   |16, 28, 8, -536,
   |16, 28, 32, -528,
   |16, 28, 34, -530,
   |16, 28, 41, -521,
   |16, 28, 49, -524,
   |16, 32, 3, -734,
   |16, 32, 4, -768,
   |16, 32, 8, -760,
   |16, 32, 28, -765,
   |16, 32, 34, -745,
   |16, 32, 41, -760,
   |16, 32, 49, -766,
   |16, 34, 3, -1067,
   |16, 34, 4, -1052,
   |16, 34, 8, -1063,
   |16, 34, 28, -1061,
   |16, 34, 32, -1040,
   |16, 34, 41, -1057,
   |16, 34, 49, -1053,
   |16, 41, 3, -361,
   |16, 41, 4, -374,
   |16, 41, 8, -355,
   |16, 41, 28, -360,
   |16, 41, 32, -362,
   |16, 41, 34, -364,
   |16, 41, 49, -375,
   |16, 49, 3, -1013,
   |16, 49, 4, -1033,
   |16, 49, 8, -1013,
   |16, 49, 28, -1020,
   |16, 49, 32, -1025,
   |16, 49, 34, -1017,
   |16, 49, 41, -1032,
   |16, 16, 16, 0,
   |17, 7, 40, -731,
   |17, 40, 7, -499,
   |17, 17, 17, 0,
   |18, 18, 18, 0,
   |19, 6, 9, -774,
   |19, 6, 38, -783,
   |19, 6, 42, -786,
   |19, 6, 44, -793,
   |19, 9, 6, -1525,
   |19, 9, 38, -1515,
   |19, 9, 42, -1538,
   |19, 9, 44, -1522,
   |19, 38, 6, -580,
   |19, 38, 9, -561,
   |19, 38, 42, -580,
   |19, 38, 44, -585,
   |19, 42, 6, -1040,
   |19, 42, 9, -1041,
   |19, 42, 38, -1037,
   |19, 42, 44, -1040,
   |19, 44, 6, -691,
   |19, 44, 9, -669,
   |19, 44, 38, -686,
   |19, 44, 42, -685,
   |19, 19, 19, 0,
   |20, 23, 30, -813,
   |20, 23, 35, -802,
   |20, 23, 36, -809,
   |20, 30, 23, -815,
   |20, 30, 35, -821,
   |20, 30, 36, -822,
   |20, 35, 23, -845,
   |20, 35, 30, -862,
   |20, 35, 36, -864,
   |20, 36, 23, -1231,
   |20, 36, 30, -1243,
   |20, 36, 35, -1244,
   |20, 20, 20, 0,
   |21, 5, 11, -980,
   |21, 5, 36, -983,
   |21, 5, 43, -984,
   |21, 11, 5, -549,
   |21, 11, 36, -545,
   |21, 11, 43, -551,
   |21, 36, 5, -1212,
   |21, 36, 11, -1206,
   |21, 36, 43, -1211,
   |21, 43, 5, -380,
   |21, 43, 11, -379,
   |21, 43, 36, -378,
   |21, 21, 21, 0,
   |22, 22, 22, 0,
   |23, 5, 15, -902,
   |23, 5, 20, -910,
   |23, 15, 5, -503,
   |23, 15, 20, -500,
   |23, 20, 5, -814,
   |23, 20, 15, -802,
   |23, 23, 23, 0,
   |24, 8, 42, -1325,
   |24, 42, 8, -1463,
   |24, 24, 24, 0,
   |25, 28, 33, -960,
   |25, 28, 40, -946,
   |25, 28, 45, -960,
   |25, 28, 49, -947,
   |25, 33, 28, -408,
   |25, 33, 40, -396,
   |25, 33, 45, -410,
   |25, 33, 49, -384,
   |25, 40, 28, -925,
   |25, 40, 33, -927,
   |25, 40, 45, -926,
   |25, 40, 49, -912,
   |25, 45, 28, -672,
   |25, 45, 33, -674,
   |25, 45, 40, -659,
   |25, 45, 49, -650,
   |25, 49, 28, -527,
   |25, 49, 33, -517,
   |25, 49, 40, -514,
   |25, 49, 45, -519,
   |25, 25, 25, 0,
   |26, 33, 41, -783,
   |26, 41, 33, -945,
   |26, 26, 26, 0,
   |27, 32, 48, -439,
   |27, 48, 32, -256,
   |27, 27, 27, 0,
   |28, 8, 16, -845,
   |28, 8, 25, -849,
   |28, 8, 33, -851,
   |28, 8, 42, -869,
   |28, 8, 45, -853,
   |28, 16, 8, -502,
   |28, 16, 25, -530,
   |28, 16, 33, -532,
   |28, 16, 42, -508,
   |28, 16, 45, -534,
   |28, 25, 8, -932,
   |28, 25, 16, -956,
   |28, 25, 33, -962,
   |28, 25, 42, -939,
   |28, 25, 45, -959,
   |28, 33, 8, -668,
   |28, 33, 16, -692,
   |28, 33, 25, -696,
   |28, 33, 42, -666,
   |28, 33, 45, -696,
   |28, 42, 8, -490,
   |28, 42, 16, -472,
   |28, 42, 25, -478,
   |28, 42, 33, -471,
   |28, 42, 45, -462,
   |28, 45, 8, -527,
   |28, 45, 16, -551,
   |28, 45, 25, -551,
   |28, 45, 33, -553,
   |28, 45, 42, -515,
   |28, 28, 28, 0,
   |29, 29, 29, 0,
   |30, 5, 14, -339,
   |30, 5, 20, -351,
   |30, 5, 35, -354,
   |30, 14, 5, -466,
   |30, 14, 20, -485,
   |30, 14, 35, -477,
   |30, 20, 5, -802,
   |30, 20, 14, -810,
   |30, 20, 35, -814,
   |30, 35, 5, -609,
   |30, 35, 14, -606,
   |30, 35, 20, -618,
   |30, 30, 30, 0,
   |31, 31, 31, 0,
   |32, 3, 12, -1400,
   |32, 3, 16, -1404,
   |32, 3, 27, -1390,
   |32, 3, 34, -1404,
   |32, 12, 3, -440,
   |32, 12, 16, -440,
   |32, 12, 27, -413,
   |32, 12, 34, -441,
   |32, 16, 3, -773,
   |32, 16, 12, -768,
   |32, 16, 27, -759,
   |32, 16, 34, -772,
   |32, 27, 3, -436,
   |32, 27, 12, -419,
   |32, 27, 16, -436,
   |32, 27, 34, -436,
   |32, 34, 3, -1625,
   |32, 34, 12, -1621,
   |32, 34, 16, -1624,
   |32, 34, 27, -1611,
   |32, 32, 32, 0,
   |33, 25, 26, -403,
   |33, 25, 28, -382,
   |33, 25, 41, -394,
   |33, 25, 42, -389,
   |33, 25, 45, -365,
   |33, 26, 25, -777,
   |33, 26, 28, -771,
   |33, 26, 41, -760,
   |33, 26, 42, -775,
   |33, 26, 45, -758,
   |33, 28, 25, -669,
   |33, 28, 26, -684,
   |33, 28, 41, -688,
   |33, 28, 42, -696,
   |33, 28, 45, -693,
   |33, 41, 25, -321,
   |33, 41, 26, -314,
   |33, 41, 28, -329,
   |33, 41, 42, -330,
   |33, 41, 45, -327,
   |33, 42, 25, -1042,
   |33, 42, 26, -1054,
   |33, 42, 28, -1062,
   |33, 42, 41, -1056,
   |33, 42, 45, -1055,
   |33, 45, 25, -272,
   |33, 45, 26, -291,
   |33, 45, 28, -313,
   |33, 45, 41, -307,
   |33, 45, 42, -309,
   |33, 33, 33, 0,
   |34, 3, 7, -559,
   |34, 3, 16, -587,
   |34, 3, 18, -563,
   |34, 3, 32, -584,
   |34, 7, 3, -1124,
   |34, 7, 16, -1131,
   |34, 7, 18, -1154,
   |34, 7, 32, -1136,
   |34, 16, 3, -1066,
   |34, 16, 7, -1046,
   |34, 16, 18, -1050,
   |34, 16, 32, -1068,
   |34, 18, 3, -627,
   |34, 18, 7, -654,
   |34, 18, 16, -636,
   |34, 18, 32, -641,
   |34, 32, 3, -1620,
   |34, 32, 7, -1608,
   |34, 32, 16, -1625,
   |34, 32, 18, -1612,
   |34, 34, 34, 0,
   |35, 9, 13, -801,
   |35, 9, 20, -800,
   |35, 9, 30, -804,
   |35, 9, 46, -824,
   |35, 9, 47, -801,
   |35, 13, 9, -391,
   |35, 13, 20, -391,
   |35, 13, 30, -391,
   |35, 13, 46, -395,
   |35, 13, 47, -415,
   |35, 20, 9, -841,
   |35, 20, 13, -841,
   |35, 20, 30, -858,
   |35, 20, 46, -836,
   |35, 20, 47, -843,
   |35, 30, 9, -607,
   |35, 30, 13, -604,
   |35, 30, 20, -620,
   |35, 30, 46, -606,
   |35, 30, 47, -602,
   |35, 46, 9, -268,
   |35, 46, 13, -248,
   |35, 46, 20, -239,
   |35, 46, 30, -246,
   |35, 46, 47, -247,
   |35, 47, 9, -765,
   |35, 47, 13, -789,
   |35, 47, 20, -767,
   |35, 47, 30, -762,
   |35, 47, 46, -768,
   |35, 35, 35, 0,
   |36, 11, 13, -1127,
   |36, 11, 20, -1136,
   |36, 11, 21, -1139,
   |36, 11, 43, -1140,
   |36, 13, 11, -456,
   |36, 13, 20, -463,
   |36, 13, 21, -463,
   |36, 13, 43, -459,
   |36, 20, 11, -1241,
   |36, 20, 13, -1239,
   |36, 20, 21, -1243,
   |36, 20, 43, -1243,
   |36, 21, 11, -1213,
   |36, 21, 13, -1208,
   |36, 21, 20, -1213,
   |36, 21, 43, -1214,
   |36, 43, 11, -986,
   |36, 43, 13, -977,
   |36, 43, 20, -984,
   |36, 43, 21, -986,
   |36, 36, 36, 0,
   |37, 50, 10, -658,
   |37, 37, 37, 0,
   |38, 2, 6, -503,
   |38, 2, 19, -522,
   |38, 2, 44, -501,
   |38, 6, 2, -820,
   |38, 6, 19, -838,
   |38, 6, 44, -846,
   |38, 19, 2, -583,
   |38, 19, 6, -583,
   |38, 19, 44, -581,
   |38, 44, 2, -575,
   |38, 44, 6, -603,
   |38, 44, 19, -594,
   |38, 38, 38, 0,
   |39, 14, 1, -334,
   |39, 14, 22, -358,
   |39, 22, 1, -509,
   |39, 22, 14, -506,
   |39, 39, 39, 0,
   |40, 7, 17, -552,
   |40, 7, 25, -538,
   |40, 17, 7, -489,
   |40, 17, 25, -500,
   |40, 25, 7, -912,
   |40, 25, 17, -937,
   |40, 40, 40, 0,
   |41, 4, 16, -515,
   |41, 4, 26, -537,
   |41, 4, 33, -525,
   |41, 4, 42, -534,
   |41, 4, 49, -543,
   |41, 16, 4, -346,
   |41, 16, 26, -349,
   |41, 16, 33, -354,
   |41, 16, 42, -367,
   |41, 16, 49, -338,
   |41, 26, 4, -939,
   |41, 26, 16, -919,
   |41, 26, 33, -941,
   |41, 26, 42, -937,
   |41, 26, 49, -940,
   |41, 33, 4, -318,
   |41, 33, 16, -316,
   |41, 33, 26, -333,
   |41, 33, 42, -319,
   |41, 33, 49, -322,
   |41, 42, 4, -963,
   |41, 42, 16, -965,
   |41, 42, 26, -964,
   |41, 42, 33, -955,
   |41, 42, 49, -958,
   |41, 49, 4, -736,
   |41, 49, 16, -699,
   |41, 49, 26, -731,
   |41, 49, 33, -722,
   |41, 49, 42, -722,
   |41, 41, 41, 0,
   |42, 9, 12, -1363,
   |42, 9, 19, -1360,
   |42, 9, 24, -1370,
   |42, 9, 28, -1371,
   |42, 9, 33, -1367,
   |42, 9, 41, -1366,
   |42, 9, 45, -1369,
   |42, 9, 49, -1358,
   |42, 12, 9, -492,
   |42, 12, 19, -501,
   |42, 12, 24, -497,
   |42, 12, 28, -494,
   |42, 12, 33, -492,
   |42, 12, 41, -495,
   |42, 12, 45, -494,
   |42, 12, 49, -489,
   |42, 19, 9, -1036,
   |42, 19, 12, -1047,
   |42, 19, 24, -1042,
   |42, 19, 28, -1038,
   |42, 19, 33, -1035,
   |42, 19, 41, -1039,
   |42, 19, 45, -1037,
   |42, 19, 49, -1033,
   |42, 24, 9, -1465,
   |42, 24, 12, -1462,
   |42, 24, 19, -1461,
   |42, 24, 28, -1464,
   |42, 24, 33, -1459,
   |42, 24, 41, -1459,
   |42, 24, 45, -1462,
   |42, 24, 49, -1449,
   |42, 28, 9, -500,
   |42, 28, 12, -494,
   |42, 28, 19, -491,
   |42, 28, 24, -499,
   |42, 28, 33, -500,
   |42, 28, 41, -499,
   |42, 28, 45, -501,
   |42, 28, 49, -493,
   |42, 33, 9, -1059,
   |42, 33, 12, -1054,
   |42, 33, 19, -1051,
   |42, 33, 24, -1056,
   |42, 33, 28, -1062,
   |42, 33, 41, -1063,
   |42, 33, 45, -1063,
   |42, 33, 49, -1060,
   |42, 41, 9, -967,
   |42, 41, 12, -967,
   |42, 41, 19, -965,
   |42, 41, 24, -966,
   |42, 41, 28, -971,
   |42, 41, 33, -973,
   |42, 41, 45, -972,
   |42, 41, 49, -970,
   |42, 45, 9, -980,
   |42, 45, 12, -975,
   |42, 45, 19, -972,
   |42, 45, 24, -978,
   |42, 45, 28, -982,
   |42, 45, 33, -982,
   |42, 45, 41, -982,
   |42, 45, 49, -977,
   |42, 49, 9, -1184,
   |42, 49, 12, -1185,
   |42, 49, 19, -1183,
   |42, 49, 24, -1181,
   |42, 49, 28, -1189,
   |42, 49, 33, -1194,
   |42, 49, 41, -1195,
   |42, 49, 45, -1192,
   |42, 42, 42, 0,
   |43, 5, 11, -657,
   |43, 5, 21, -635,
   |43, 5, 36, -671,
   |43, 11, 5, -322,
   |43, 11, 21, -318,
   |43, 11, 36, -316,
   |43, 21, 5, -342,
   |43, 21, 11, -360,
   |43, 21, 36, -353,
   |43, 36, 5, -984,
   |43, 36, 11, -963,
   |43, 36, 21, -959,
   |43, 43, 43, 0,
   |44, 6, 19, -291,
   |44, 6, 38, -270,
   |44, 19, 6, -673,
   |44, 19, 38, -686,
   |44, 38, 6, -564,
   |44, 38, 19, -598,
   |44, 50, 6, -1135,
   |44, 50, 19, -1168,
   |44, 50, 38, -1173,
   |44, 44, 44, 0,
   |45, 3, 25, -449,
   |45, 3, 28, -449,
   |45, 3, 33, -452,
   |45, 3, 42, -445,
   |45, 25, 3, -649,
   |45, 25, 28, -654,
   |45, 25, 33, -674,
   |45, 25, 42, -657,
   |45, 28, 3, -529,
   |45, 28, 25, -533,
   |45, 28, 33, -532,
   |45, 28, 42, -554,
   |45, 33, 3, -294,
   |45, 33, 25, -317,
   |45, 33, 28, -295,
   |45, 33, 42, -299,
   |45, 42, 3, -952,
   |45, 42, 25, -966,
   |45, 42, 28, -982,
   |45, 42, 33, -964,
   |45, 45, 45, 0,
   |46, 8, 9, -816,
   |46, 8, 35, -826,
   |46, 9, 8, -596,
   |46, 9, 35, -570,
   |46, 35, 8, -260,
   |46, 35, 9, -225,
   |46, 46, 46, 0,
   |47, 2, 29, -587,
   |47, 2, 31, -584,
   |47, 2, 35, -570,
   |47, 29, 2, -1081,
   |47, 29, 31, -1078,
   |47, 29, 35, -1073,
   |47, 31, 2, -434,
   |47, 31, 29, -435,
   |47, 31, 35, -430,
   |47, 35, 2, -769,
   |47, 35, 29, -779,
   |47, 35, 31, -779,
   |47, 47, 47, 0,
   |48, 6, 27, -307,
   |48, 27, 6, -249,
   |48, 48, 48, 0,
   |49, 4, 16, -324,
   |49, 4, 25, -315,
   |49, 4, 41, -323,
   |49, 4, 42, -324,
   |49, 16, 4, -1031,
   |49, 16, 25, -1028,
   |49, 16, 41, -1033,
   |49, 16, 42, -1029,
   |49, 25, 4, -532,
   |49, 25, 16, -538,
   |49, 25, 41, -539,
   |49, 25, 42, -531,
   |49, 41, 4, -734,
   |49, 41, 16, -736,
   |49, 41, 25, -733,
   |49, 41, 42, -731,
   |49, 42, 4, -1196,
   |49, 42, 16, -1193,
   |49, 42, 25, -1185,
   |49, 42, 41, -1192,
   |49, 49, 49, 0,
   |];

